p cnf 400 1358
c p weight 160 -1 0
c p weight -160 1 0
c p weight 162 6.12323399573676603586882014729198302312846062338790031898128063403419218957424163818359375E-17 0
c p weight -162 1 0
c p weight 163 1 0
c p weight -163 1 0
c p weight 164 -1 0
c p weight -164 1 0
c p weight 166 -1 0
c p weight -166 1 0
c p weight 169 -1 0
c p weight -169 1 0
c p weight 172 -1 0
c p weight -172 1 0
c p weight 175 -1 0
c p weight -175 1 0
c p weight 178 -1 0
c p weight -178 1 0
c p weight 181 -1 0
c p weight -181 1 0
c p weight 184 -1 0
c p weight -184 1 0
c p weight 187 -1 0
c p weight -187 1 0
c p weight 190 -1 0
c p weight -190 1 0
c p weight 193 -1 0
c p weight -193 1 0
c p weight 196 -1 0
c p weight -196 1 0
c p weight 199 -1 0
c p weight -199 1 0
c p weight 202 -1 0
c p weight -202 1 0
c p weight 205 -1 0
c p weight -205 1 0
c p weight 208 -1 0
c p weight -208 1 0
c p weight 211 -1 0
c p weight -211 1 0
c p weight 214 -1 0
c p weight -214 1 0
c p weight 217 -1 0
c p weight -217 1 0
c p weight 220 -1 0
c p weight -220 1 0
c p weight 223 -1 0
c p weight -223 1 0
c p weight 226 -1 0
c p weight -226 1 0
c p weight 229 -1 0
c p weight -229 1 0
c p weight 232 -1 0
c p weight -232 1 0
c p weight 235 -1 0
c p weight -235 1 0
c p weight 238 -1 0
c p weight -238 1 0
c p weight 241 -1 0
c p weight -241 1 0
c p weight 244 -1 0
c p weight -244 1 0
c p weight 247 -1 0
c p weight -247 1 0
c p weight 250 -1 0
c p weight -250 1 0
c p weight 253 -1 0
c p weight -253 1 0
c p weight 256 -1 0
c p weight -256 1 0
c p weight 259 -1 0
c p weight -259 1 0
c p weight 262 -1 0
c p weight -262 1 0
c p weight 265 -1 0
c p weight -265 1 0
c p weight 268 -1 0
c p weight -268 1 0
c p weight 271 -1 0
c p weight -271 1 0
c p weight 274 -1 0
c p weight -274 1 0
c p weight 277 -1 0
c p weight -277 1 0
c p weight 280 -1 0
c p weight -280 1 0
c p weight 283 -1 0
c p weight -283 1 0
c p weight 286 -1 0
c p weight -286 1 0
c p weight 289 -1 0
c p weight -289 1 0
c p weight 292 -1 0
c p weight -292 1 0
c p weight 295 -1 0
c p weight -295 1 0
c p weight 298 -1 0
c p weight -298 1 0
c p weight 301 -1 0
c p weight -301 1 0
c p weight 304 -1 0
c p weight -304 1 0
c p weight 307 -1 0
c p weight -307 1 0
c p weight 310 -1 0
c p weight -310 1 0
c p weight 313 -1 0
c p weight -313 1 0
c p weight 316 -1 0
c p weight -316 1 0
c p weight 319 -1 0
c p weight -319 1 0
c p weight 322 -1 0
c p weight -322 1 0
c p weight 325 -1 0
c p weight -325 1 0
c p weight 328 -1 0
c p weight -328 1 0
c p weight 331 -1 0
c p weight -331 1 0
c p weight 334 -1 0
c p weight -334 1 0
c p weight 337 -1 0
c p weight -337 1 0
c p weight 340 -1 0
c p weight -340 1 0
c p weight 343 -1 0
c p weight -343 1 0
c p weight 346 -1 0
c p weight -346 1 0
c p weight 349 -1 0
c p weight -349 1 0
c p weight 352 -1 0
c p weight -352 1 0
c p weight 355 -1 0
c p weight -355 1 0
c p weight 358 -1 0
c p weight -358 1 0
c p weight 361 -1 0
c p weight -361 1 0
c p weight 364 -1 0
c p weight -364 1 0
c p weight 367 -1 0
c p weight -367 1 0
c p weight 370 -1 0
c p weight -370 1 0
c p weight 373 -1 0
c p weight -373 1 0
c p weight 376 -1 0
c p weight -376 1 0
c p weight 379 -1 0
c p weight -379 1 0
c p weight 382 -1 0
c p weight -382 1 0
c p weight 385 -1 0
c p weight -385 1 0
c p weight 388 -1 0
c p weight -388 1 0
c p weight 391 -1 0
c p weight -391 1 0
c p weight 394 -1 0
c p weight -394 1 0
c p weight 397 -1 0
c p weight -397 1 0
c p weight 400 -1 0
c p weight -400 1 0
-157 0
-155 0
-153 0
-151 0
-149 0
-147 0
-145 0
-143 0
-141 0
-139 0
-137 0
-135 0
-133 0
-131 0
-129 0
-127 0
-125 0
-123 0
-121 0
-119 0
-117 0
-115 0
-113 0
-111 0
-109 0
-107 0
-105 0
-103 0
-101 0
-99 0
-97 0
-95 0
-93 0
-91 0
-89 0
-87 0
-85 0
-83 0
-81 0
-79 0
-77 0
-75 0
-73 0
-71 0
-69 0
-67 0
-65 0
-63 0
-61 0
-59 0
-57 0
-55 0
-53 0
-51 0
-49 0
-47 0
-45 0
-43 0
-41 0
-39 0
-37 0
-35 0
-33 0
-31 0
-29 0
-27 0
-25 0
-23 0
-21 0
-19 0
-17 0
-15 0
-13 0
-11 0
-9 0
-7 0
-5 0
-3 0
-1 0
159 157 -158 0
159 -157 158 0
-159 157 158 0
-159 -157 -158 0
-160 157 0
-160 158 0
160 -157 -158 0
161 -157 159 0
-161 157 159 0
-162 159 0
161 -162 -157 0
-161 -162 157 0
161 162 157 -159 0
-161 162 -157 -159 0
-163 159 0
161 -163 157 0
-161 -163 -157 0
161 163 -157 -159 0
-161 163 157 -159 0
-164 161 0
-164 159 0
-164 -157 0
164 -161 157 -159 0
165 161 -159 0
165 -161 159 0
-165 161 159 0
-165 -161 -159 0
-166 161 0
-166 159 0
166 -161 -159 0
167 161 -155 0
167 -161 155 0
-167 161 155 0
-167 -161 -155 0
168 165 -156 0
168 -165 156 0
-168 165 156 0
-168 -165 -156 0
-169 161 0
-169 156 0
-169 155 -165 0
-169 -155 165 0
169 -161 155 165 -156 0
169 -161 -155 -165 -156 0
170 167 -153 0
170 -167 153 0
-170 167 153 0
-170 -167 -153 0
171 156 -154 0
171 -156 154 0
-171 156 154 0
-171 -156 -154 0
-172 167 0
-172 154 0
-172 153 -156 0
-172 -153 156 0
172 -167 153 156 -154 0
172 -167 -153 -156 -154 0
173 170 -151 0
173 -170 151 0
-173 170 151 0
-173 -170 -151 0
174 154 -152 0
174 -154 152 0
-174 154 152 0
-174 -154 -152 0
-175 170 0
-175 152 0
-175 151 -154 0
-175 -151 154 0
175 -170 151 154 -152 0
175 -170 -151 -154 -152 0
176 173 -149 0
176 -173 149 0
-176 173 149 0
-176 -173 -149 0
177 152 -150 0
177 -152 150 0
-177 152 150 0
-177 -152 -150 0
-178 173 0
-178 150 0
-178 149 -152 0
-178 -149 152 0
178 -173 149 152 -150 0
178 -173 -149 -152 -150 0
179 176 -147 0
179 -176 147 0
-179 176 147 0
-179 -176 -147 0
180 150 -148 0
180 -150 148 0
-180 150 148 0
-180 -150 -148 0
-181 176 0
-181 148 0
-181 147 -150 0
-181 -147 150 0
181 -176 147 150 -148 0
181 -176 -147 -150 -148 0
182 179 -145 0
182 -179 145 0
-182 179 145 0
-182 -179 -145 0
183 148 -146 0
183 -148 146 0
-183 148 146 0
-183 -148 -146 0
-184 179 0
-184 146 0
-184 145 -148 0
-184 -145 148 0
184 -179 145 148 -146 0
184 -179 -145 -148 -146 0
185 182 -143 0
185 -182 143 0
-185 182 143 0
-185 -182 -143 0
186 146 -144 0
186 -146 144 0
-186 146 144 0
-186 -146 -144 0
-187 182 0
-187 144 0
-187 143 -146 0
-187 -143 146 0
187 -182 143 146 -144 0
187 -182 -143 -146 -144 0
188 185 -141 0
188 -185 141 0
-188 185 141 0
-188 -185 -141 0
189 144 -142 0
189 -144 142 0
-189 144 142 0
-189 -144 -142 0
-190 185 0
-190 142 0
-190 141 -144 0
-190 -141 144 0
190 -185 141 144 -142 0
190 -185 -141 -144 -142 0
191 188 -139 0
191 -188 139 0
-191 188 139 0
-191 -188 -139 0
192 142 -140 0
192 -142 140 0
-192 142 140 0
-192 -142 -140 0
-193 188 0
-193 140 0
-193 139 -142 0
-193 -139 142 0
193 -188 139 142 -140 0
193 -188 -139 -142 -140 0
194 191 -137 0
194 -191 137 0
-194 191 137 0
-194 -191 -137 0
195 140 -138 0
195 -140 138 0
-195 140 138 0
-195 -140 -138 0
-196 191 0
-196 138 0
-196 137 -140 0
-196 -137 140 0
196 -191 137 140 -138 0
196 -191 -137 -140 -138 0
197 194 -135 0
197 -194 135 0
-197 194 135 0
-197 -194 -135 0
198 138 -136 0
198 -138 136 0
-198 138 136 0
-198 -138 -136 0
-199 194 0
-199 136 0
-199 135 -138 0
-199 -135 138 0
199 -194 135 138 -136 0
199 -194 -135 -138 -136 0
200 197 -133 0
200 -197 133 0
-200 197 133 0
-200 -197 -133 0
201 136 -134 0
201 -136 134 0
-201 136 134 0
-201 -136 -134 0
-202 197 0
-202 134 0
-202 133 -136 0
-202 -133 136 0
202 -197 133 136 -134 0
202 -197 -133 -136 -134 0
203 200 -131 0
203 -200 131 0
-203 200 131 0
-203 -200 -131 0
204 134 -132 0
204 -134 132 0
-204 134 132 0
-204 -134 -132 0
-205 200 0
-205 132 0
-205 131 -134 0
-205 -131 134 0
205 -200 131 134 -132 0
205 -200 -131 -134 -132 0
206 203 -129 0
206 -203 129 0
-206 203 129 0
-206 -203 -129 0
207 132 -130 0
207 -132 130 0
-207 132 130 0
-207 -132 -130 0
-208 203 0
-208 130 0
-208 129 -132 0
-208 -129 132 0
208 -203 129 132 -130 0
208 -203 -129 -132 -130 0
209 206 -127 0
209 -206 127 0
-209 206 127 0
-209 -206 -127 0
210 130 -128 0
210 -130 128 0
-210 130 128 0
-210 -130 -128 0
-211 206 0
-211 128 0
-211 127 -130 0
-211 -127 130 0
211 -206 127 130 -128 0
211 -206 -127 -130 -128 0
212 209 -125 0
212 -209 125 0
-212 209 125 0
-212 -209 -125 0
213 128 -126 0
213 -128 126 0
-213 128 126 0
-213 -128 -126 0
-214 209 0
-214 126 0
-214 125 -128 0
-214 -125 128 0
214 -209 125 128 -126 0
214 -209 -125 -128 -126 0
215 212 -123 0
215 -212 123 0
-215 212 123 0
-215 -212 -123 0
216 126 -124 0
216 -126 124 0
-216 126 124 0
-216 -126 -124 0
-217 212 0
-217 124 0
-217 123 -126 0
-217 -123 126 0
217 -212 123 126 -124 0
217 -212 -123 -126 -124 0
218 215 -121 0
218 -215 121 0
-218 215 121 0
-218 -215 -121 0
219 124 -122 0
219 -124 122 0
-219 124 122 0
-219 -124 -122 0
-220 215 0
-220 122 0
-220 121 -124 0
-220 -121 124 0
220 -215 121 124 -122 0
220 -215 -121 -124 -122 0
221 218 -119 0
221 -218 119 0
-221 218 119 0
-221 -218 -119 0
222 122 -120 0
222 -122 120 0
-222 122 120 0
-222 -122 -120 0
-223 218 0
-223 120 0
-223 119 -122 0
-223 -119 122 0
223 -218 119 122 -120 0
223 -218 -119 -122 -120 0
224 221 -117 0
224 -221 117 0
-224 221 117 0
-224 -221 -117 0
225 120 -118 0
225 -120 118 0
-225 120 118 0
-225 -120 -118 0
-226 221 0
-226 118 0
-226 117 -120 0
-226 -117 120 0
226 -221 117 120 -118 0
226 -221 -117 -120 -118 0
227 224 -115 0
227 -224 115 0
-227 224 115 0
-227 -224 -115 0
228 118 -116 0
228 -118 116 0
-228 118 116 0
-228 -118 -116 0
-229 224 0
-229 116 0
-229 115 -118 0
-229 -115 118 0
229 -224 115 118 -116 0
229 -224 -115 -118 -116 0
230 227 -113 0
230 -227 113 0
-230 227 113 0
-230 -227 -113 0
231 116 -114 0
231 -116 114 0
-231 116 114 0
-231 -116 -114 0
-232 227 0
-232 114 0
-232 113 -116 0
-232 -113 116 0
232 -227 113 116 -114 0
232 -227 -113 -116 -114 0
233 230 -111 0
233 -230 111 0
-233 230 111 0
-233 -230 -111 0
234 114 -112 0
234 -114 112 0
-234 114 112 0
-234 -114 -112 0
-235 230 0
-235 112 0
-235 111 -114 0
-235 -111 114 0
235 -230 111 114 -112 0
235 -230 -111 -114 -112 0
236 233 -109 0
236 -233 109 0
-236 233 109 0
-236 -233 -109 0
237 112 -110 0
237 -112 110 0
-237 112 110 0
-237 -112 -110 0
-238 233 0
-238 110 0
-238 109 -112 0
-238 -109 112 0
238 -233 109 112 -110 0
238 -233 -109 -112 -110 0
239 236 -107 0
239 -236 107 0
-239 236 107 0
-239 -236 -107 0
240 110 -108 0
240 -110 108 0
-240 110 108 0
-240 -110 -108 0
-241 236 0
-241 108 0
-241 107 -110 0
-241 -107 110 0
241 -236 107 110 -108 0
241 -236 -107 -110 -108 0
242 239 -105 0
242 -239 105 0
-242 239 105 0
-242 -239 -105 0
243 108 -106 0
243 -108 106 0
-243 108 106 0
-243 -108 -106 0
-244 239 0
-244 106 0
-244 105 -108 0
-244 -105 108 0
244 -239 105 108 -106 0
244 -239 -105 -108 -106 0
245 242 -103 0
245 -242 103 0
-245 242 103 0
-245 -242 -103 0
246 106 -104 0
246 -106 104 0
-246 106 104 0
-246 -106 -104 0
-247 242 0
-247 104 0
-247 103 -106 0
-247 -103 106 0
247 -242 103 106 -104 0
247 -242 -103 -106 -104 0
248 245 -101 0
248 -245 101 0
-248 245 101 0
-248 -245 -101 0
249 104 -102 0
249 -104 102 0
-249 104 102 0
-249 -104 -102 0
-250 245 0
-250 102 0
-250 101 -104 0
-250 -101 104 0
250 -245 101 104 -102 0
250 -245 -101 -104 -102 0
251 248 -99 0
251 -248 99 0
-251 248 99 0
-251 -248 -99 0
252 102 -100 0
252 -102 100 0
-252 102 100 0
-252 -102 -100 0
-253 248 0
-253 100 0
-253 99 -102 0
-253 -99 102 0
253 -248 99 102 -100 0
253 -248 -99 -102 -100 0
254 251 -97 0
254 -251 97 0
-254 251 97 0
-254 -251 -97 0
255 100 -98 0
255 -100 98 0
-255 100 98 0
-255 -100 -98 0
-256 251 0
-256 98 0
-256 97 -100 0
-256 -97 100 0
256 -251 97 100 -98 0
256 -251 -97 -100 -98 0
257 254 -95 0
257 -254 95 0
-257 254 95 0
-257 -254 -95 0
258 98 -96 0
258 -98 96 0
-258 98 96 0
-258 -98 -96 0
-259 254 0
-259 96 0
-259 95 -98 0
-259 -95 98 0
259 -254 95 98 -96 0
259 -254 -95 -98 -96 0
260 257 -93 0
260 -257 93 0
-260 257 93 0
-260 -257 -93 0
261 96 -94 0
261 -96 94 0
-261 96 94 0
-261 -96 -94 0
-262 257 0
-262 94 0
-262 93 -96 0
-262 -93 96 0
262 -257 93 96 -94 0
262 -257 -93 -96 -94 0
263 260 -91 0
263 -260 91 0
-263 260 91 0
-263 -260 -91 0
264 94 -92 0
264 -94 92 0
-264 94 92 0
-264 -94 -92 0
-265 260 0
-265 92 0
-265 91 -94 0
-265 -91 94 0
265 -260 91 94 -92 0
265 -260 -91 -94 -92 0
266 263 -89 0
266 -263 89 0
-266 263 89 0
-266 -263 -89 0
267 92 -90 0
267 -92 90 0
-267 92 90 0
-267 -92 -90 0
-268 263 0
-268 90 0
-268 89 -92 0
-268 -89 92 0
268 -263 89 92 -90 0
268 -263 -89 -92 -90 0
269 266 -87 0
269 -266 87 0
-269 266 87 0
-269 -266 -87 0
270 90 -88 0
270 -90 88 0
-270 90 88 0
-270 -90 -88 0
-271 266 0
-271 88 0
-271 87 -90 0
-271 -87 90 0
271 -266 87 90 -88 0
271 -266 -87 -90 -88 0
272 269 -85 0
272 -269 85 0
-272 269 85 0
-272 -269 -85 0
273 88 -86 0
273 -88 86 0
-273 88 86 0
-273 -88 -86 0
-274 269 0
-274 86 0
-274 85 -88 0
-274 -85 88 0
274 -269 85 88 -86 0
274 -269 -85 -88 -86 0
275 272 -83 0
275 -272 83 0
-275 272 83 0
-275 -272 -83 0
276 86 -84 0
276 -86 84 0
-276 86 84 0
-276 -86 -84 0
-277 272 0
-277 84 0
-277 83 -86 0
-277 -83 86 0
277 -272 83 86 -84 0
277 -272 -83 -86 -84 0
278 275 -81 0
278 -275 81 0
-278 275 81 0
-278 -275 -81 0
279 84 -82 0
279 -84 82 0
-279 84 82 0
-279 -84 -82 0
-280 275 0
-280 82 0
-280 81 -84 0
-280 -81 84 0
280 -275 81 84 -82 0
280 -275 -81 -84 -82 0
281 278 -79 0
281 -278 79 0
-281 278 79 0
-281 -278 -79 0
282 82 -80 0
282 -82 80 0
-282 82 80 0
-282 -82 -80 0
-283 278 0
-283 80 0
-283 79 -82 0
-283 -79 82 0
283 -278 79 82 -80 0
283 -278 -79 -82 -80 0
284 281 -77 0
284 -281 77 0
-284 281 77 0
-284 -281 -77 0
285 80 -78 0
285 -80 78 0
-285 80 78 0
-285 -80 -78 0
-286 281 0
-286 78 0
-286 77 -80 0
-286 -77 80 0
286 -281 77 80 -78 0
286 -281 -77 -80 -78 0
287 284 -75 0
287 -284 75 0
-287 284 75 0
-287 -284 -75 0
288 78 -76 0
288 -78 76 0
-288 78 76 0
-288 -78 -76 0
-289 284 0
-289 76 0
-289 75 -78 0
-289 -75 78 0
289 -284 75 78 -76 0
289 -284 -75 -78 -76 0
290 287 -73 0
290 -287 73 0
-290 287 73 0
-290 -287 -73 0
291 76 -74 0
291 -76 74 0
-291 76 74 0
-291 -76 -74 0
-292 287 0
-292 74 0
-292 73 -76 0
-292 -73 76 0
292 -287 73 76 -74 0
292 -287 -73 -76 -74 0
293 290 -71 0
293 -290 71 0
-293 290 71 0
-293 -290 -71 0
294 74 -72 0
294 -74 72 0
-294 74 72 0
-294 -74 -72 0
-295 290 0
-295 72 0
-295 71 -74 0
-295 -71 74 0
295 -290 71 74 -72 0
295 -290 -71 -74 -72 0
296 293 -69 0
296 -293 69 0
-296 293 69 0
-296 -293 -69 0
297 72 -70 0
297 -72 70 0
-297 72 70 0
-297 -72 -70 0
-298 293 0
-298 70 0
-298 69 -72 0
-298 -69 72 0
298 -293 69 72 -70 0
298 -293 -69 -72 -70 0
299 296 -67 0
299 -296 67 0
-299 296 67 0
-299 -296 -67 0
300 70 -68 0
300 -70 68 0
-300 70 68 0
-300 -70 -68 0
-301 296 0
-301 68 0
-301 67 -70 0
-301 -67 70 0
301 -296 67 70 -68 0
301 -296 -67 -70 -68 0
302 299 -65 0
302 -299 65 0
-302 299 65 0
-302 -299 -65 0
303 68 -66 0
303 -68 66 0
-303 68 66 0
-303 -68 -66 0
-304 299 0
-304 66 0
-304 65 -68 0
-304 -65 68 0
304 -299 65 68 -66 0
304 -299 -65 -68 -66 0
305 302 -63 0
305 -302 63 0
-305 302 63 0
-305 -302 -63 0
306 66 -64 0
306 -66 64 0
-306 66 64 0
-306 -66 -64 0
-307 302 0
-307 64 0
-307 63 -66 0
-307 -63 66 0
307 -302 63 66 -64 0
307 -302 -63 -66 -64 0
308 305 -61 0
308 -305 61 0
-308 305 61 0
-308 -305 -61 0
309 64 -62 0
309 -64 62 0
-309 64 62 0
-309 -64 -62 0
-310 305 0
-310 62 0
-310 61 -64 0
-310 -61 64 0
310 -305 61 64 -62 0
310 -305 -61 -64 -62 0
311 308 -59 0
311 -308 59 0
-311 308 59 0
-311 -308 -59 0
312 62 -60 0
312 -62 60 0
-312 62 60 0
-312 -62 -60 0
-313 308 0
-313 60 0
-313 59 -62 0
-313 -59 62 0
313 -308 59 62 -60 0
313 -308 -59 -62 -60 0
314 311 -57 0
314 -311 57 0
-314 311 57 0
-314 -311 -57 0
315 60 -58 0
315 -60 58 0
-315 60 58 0
-315 -60 -58 0
-316 311 0
-316 58 0
-316 57 -60 0
-316 -57 60 0
316 -311 57 60 -58 0
316 -311 -57 -60 -58 0
317 314 -55 0
317 -314 55 0
-317 314 55 0
-317 -314 -55 0
318 58 -56 0
318 -58 56 0
-318 58 56 0
-318 -58 -56 0
-319 314 0
-319 56 0
-319 55 -58 0
-319 -55 58 0
319 -314 55 58 -56 0
319 -314 -55 -58 -56 0
320 317 -53 0
320 -317 53 0
-320 317 53 0
-320 -317 -53 0
321 56 -54 0
321 -56 54 0
-321 56 54 0
-321 -56 -54 0
-322 317 0
-322 54 0
-322 53 -56 0
-322 -53 56 0
322 -317 53 56 -54 0
322 -317 -53 -56 -54 0
323 320 -51 0
323 -320 51 0
-323 320 51 0
-323 -320 -51 0
324 54 -52 0
324 -54 52 0
-324 54 52 0
-324 -54 -52 0
-325 320 0
-325 52 0
-325 51 -54 0
-325 -51 54 0
325 -320 51 54 -52 0
325 -320 -51 -54 -52 0
326 323 -49 0
326 -323 49 0
-326 323 49 0
-326 -323 -49 0
327 52 -50 0
327 -52 50 0
-327 52 50 0
-327 -52 -50 0
-328 323 0
-328 50 0
-328 49 -52 0
-328 -49 52 0
328 -323 49 52 -50 0
328 -323 -49 -52 -50 0
329 326 -47 0
329 -326 47 0
-329 326 47 0
-329 -326 -47 0
330 50 -48 0
330 -50 48 0
-330 50 48 0
-330 -50 -48 0
-331 326 0
-331 48 0
-331 47 -50 0
-331 -47 50 0
331 -326 47 50 -48 0
331 -326 -47 -50 -48 0
332 329 -45 0
332 -329 45 0
-332 329 45 0
-332 -329 -45 0
333 48 -46 0
333 -48 46 0
-333 48 46 0
-333 -48 -46 0
-334 329 0
-334 46 0
-334 45 -48 0
-334 -45 48 0
334 -329 45 48 -46 0
334 -329 -45 -48 -46 0
335 332 -43 0
335 -332 43 0
-335 332 43 0
-335 -332 -43 0
336 46 -44 0
336 -46 44 0
-336 46 44 0
-336 -46 -44 0
-337 332 0
-337 44 0
-337 43 -46 0
-337 -43 46 0
337 -332 43 46 -44 0
337 -332 -43 -46 -44 0
338 335 -41 0
338 -335 41 0
-338 335 41 0
-338 -335 -41 0
339 44 -42 0
339 -44 42 0
-339 44 42 0
-339 -44 -42 0
-340 335 0
-340 42 0
-340 41 -44 0
-340 -41 44 0
340 -335 41 44 -42 0
340 -335 -41 -44 -42 0
341 338 -39 0
341 -338 39 0
-341 338 39 0
-341 -338 -39 0
342 42 -40 0
342 -42 40 0
-342 42 40 0
-342 -42 -40 0
-343 338 0
-343 40 0
-343 39 -42 0
-343 -39 42 0
343 -338 39 42 -40 0
343 -338 -39 -42 -40 0
344 341 -37 0
344 -341 37 0
-344 341 37 0
-344 -341 -37 0
345 40 -38 0
345 -40 38 0
-345 40 38 0
-345 -40 -38 0
-346 341 0
-346 38 0
-346 37 -40 0
-346 -37 40 0
346 -341 37 40 -38 0
346 -341 -37 -40 -38 0
347 344 -35 0
347 -344 35 0
-347 344 35 0
-347 -344 -35 0
348 38 -36 0
348 -38 36 0
-348 38 36 0
-348 -38 -36 0
-349 344 0
-349 36 0
-349 35 -38 0
-349 -35 38 0
349 -344 35 38 -36 0
349 -344 -35 -38 -36 0
350 347 -33 0
350 -347 33 0
-350 347 33 0
-350 -347 -33 0
351 36 -34 0
351 -36 34 0
-351 36 34 0
-351 -36 -34 0
-352 347 0
-352 34 0
-352 33 -36 0
-352 -33 36 0
352 -347 33 36 -34 0
352 -347 -33 -36 -34 0
353 350 -31 0
353 -350 31 0
-353 350 31 0
-353 -350 -31 0
354 34 -32 0
354 -34 32 0
-354 34 32 0
-354 -34 -32 0
-355 350 0
-355 32 0
-355 31 -34 0
-355 -31 34 0
355 -350 31 34 -32 0
355 -350 -31 -34 -32 0
356 353 -29 0
356 -353 29 0
-356 353 29 0
-356 -353 -29 0
357 32 -30 0
357 -32 30 0
-357 32 30 0
-357 -32 -30 0
-358 353 0
-358 30 0
-358 29 -32 0
-358 -29 32 0
358 -353 29 32 -30 0
358 -353 -29 -32 -30 0
359 356 -27 0
359 -356 27 0
-359 356 27 0
-359 -356 -27 0
360 30 -28 0
360 -30 28 0
-360 30 28 0
-360 -30 -28 0
-361 356 0
-361 28 0
-361 27 -30 0
-361 -27 30 0
361 -356 27 30 -28 0
361 -356 -27 -30 -28 0
362 359 -25 0
362 -359 25 0
-362 359 25 0
-362 -359 -25 0
363 28 -26 0
363 -28 26 0
-363 28 26 0
-363 -28 -26 0
-364 359 0
-364 26 0
-364 25 -28 0
-364 -25 28 0
364 -359 25 28 -26 0
364 -359 -25 -28 -26 0
365 362 -23 0
365 -362 23 0
-365 362 23 0
-365 -362 -23 0
366 26 -24 0
366 -26 24 0
-366 26 24 0
-366 -26 -24 0
-367 362 0
-367 24 0
-367 23 -26 0
-367 -23 26 0
367 -362 23 26 -24 0
367 -362 -23 -26 -24 0
368 365 -21 0
368 -365 21 0
-368 365 21 0
-368 -365 -21 0
369 24 -22 0
369 -24 22 0
-369 24 22 0
-369 -24 -22 0
-370 365 0
-370 22 0
-370 21 -24 0
-370 -21 24 0
370 -365 21 24 -22 0
370 -365 -21 -24 -22 0
371 368 -19 0
371 -368 19 0
-371 368 19 0
-371 -368 -19 0
372 22 -20 0
372 -22 20 0
-372 22 20 0
-372 -22 -20 0
-373 368 0
-373 20 0
-373 19 -22 0
-373 -19 22 0
373 -368 19 22 -20 0
373 -368 -19 -22 -20 0
374 371 -17 0
374 -371 17 0
-374 371 17 0
-374 -371 -17 0
375 20 -18 0
375 -20 18 0
-375 20 18 0
-375 -20 -18 0
-376 371 0
-376 18 0
-376 17 -20 0
-376 -17 20 0
376 -371 17 20 -18 0
376 -371 -17 -20 -18 0
377 374 -15 0
377 -374 15 0
-377 374 15 0
-377 -374 -15 0
378 18 -16 0
378 -18 16 0
-378 18 16 0
-378 -18 -16 0
-379 374 0
-379 16 0
-379 15 -18 0
-379 -15 18 0
379 -374 15 18 -16 0
379 -374 -15 -18 -16 0
380 377 -13 0
380 -377 13 0
-380 377 13 0
-380 -377 -13 0
381 16 -14 0
381 -16 14 0
-381 16 14 0
-381 -16 -14 0
-382 377 0
-382 14 0
-382 13 -16 0
-382 -13 16 0
382 -377 13 16 -14 0
382 -377 -13 -16 -14 0
383 380 -11 0
383 -380 11 0
-383 380 11 0
-383 -380 -11 0
384 14 -12 0
384 -14 12 0
-384 14 12 0
-384 -14 -12 0
-385 380 0
-385 12 0
-385 11 -14 0
-385 -11 14 0
385 -380 11 14 -12 0
385 -380 -11 -14 -12 0
386 383 -9 0
386 -383 9 0
-386 383 9 0
-386 -383 -9 0
387 12 -10 0
387 -12 10 0
-387 12 10 0
-387 -12 -10 0
-388 383 0
-388 10 0
-388 9 -12 0
-388 -9 12 0
388 -383 9 12 -10 0
388 -383 -9 -12 -10 0
389 386 -7 0
389 -386 7 0
-389 386 7 0
-389 -386 -7 0
390 10 -8 0
390 -10 8 0
-390 10 8 0
-390 -10 -8 0
-391 386 0
-391 8 0
-391 7 -10 0
-391 -7 10 0
391 -386 7 10 -8 0
391 -386 -7 -10 -8 0
392 389 -5 0
392 -389 5 0
-392 389 5 0
-392 -389 -5 0
393 8 -6 0
393 -8 6 0
-393 8 6 0
-393 -8 -6 0
-394 389 0
-394 6 0
-394 5 -8 0
-394 -5 8 0
394 -389 5 8 -6 0
394 -389 -5 -8 -6 0
395 392 -3 0
395 -392 3 0
-395 392 3 0
-395 -392 -3 0
396 6 -4 0
396 -6 4 0
-396 6 4 0
-396 -6 -4 0
-397 392 0
-397 4 0
-397 3 -6 0
-397 -3 6 0
397 -392 3 6 -4 0
397 -392 -3 -6 -4 0
398 395 -1 0
398 -395 1 0
-398 395 1 0
-398 -395 -1 0
399 4 -2 0
399 -4 2 0
-399 4 2 0
-399 -4 -2 0
-400 395 0
-400 2 0
-400 1 -4 0
-400 -1 4 0
400 -395 1 4 -2 0
400 -395 -1 -4 -2 0
-398 0
-395 0
-399 0
-392 0
-396 0
-389 0
-393 0
-386 0
-390 0
-383 0
-387 0
-380 0
-384 0
-377 0
-381 0
-374 0
-378 0
-371 0
-375 0
-368 0
-372 0
-365 0
-369 0
-362 0
-366 0
-359 0
-363 0
-356 0
-360 0
-353 0
-357 0
-350 0
-354 0
-347 0
-351 0
-344 0
-348 0
-341 0
-345 0
-338 0
-342 0
-335 0
-339 0
-332 0
-336 0
-329 0
-333 0
-326 0
-330 0
-323 0
-327 0
-320 0
-324 0
-317 0
-321 0
-314 0
-318 0
-311 0
-315 0
-308 0
-312 0
-305 0
-309 0
-302 0
-306 0
-299 0
-303 0
-296 0
-300 0
-293 0
-297 0
-290 0
-294 0
-287 0
-291 0
-284 0
-288 0
-281 0
-285 0
-278 0
-282 0
-275 0
-279 0
-272 0
-276 0
-269 0
-273 0
-266 0
-270 0
-263 0
-267 0
-260 0
-264 0
-257 0
-261 0
-254 0
-258 0
-251 0
-255 0
-248 0
-252 0
-245 0
-249 0
-242 0
-246 0
-239 0
-243 0
-236 0
-240 0
-233 0
-237 0
-230 0
-234 0
-227 0
-231 0
-224 0
-228 0
-221 0
-225 0
-218 0
-222 0
-215 0
-219 0
-212 0
-216 0
-209 0
-213 0
-206 0
-210 0
-203 0
-207 0
-200 0
-204 0
-197 0
-201 0
-194 0
-198 0
-191 0
-195 0
-188 0
-192 0
-185 0
-189 0
-182 0
-186 0
-179 0
-183 0
-176 0
-180 0
-173 0
-177 0
-170 0
-174 0
-167 0
-171 0
-161 0
-168 0
